
Gurobi 10.0.3 (linux64, gurobi_cl) logging started Thu Nov  9 11:54:38 2023

Set parameter Username
Set parameter TimeLimit to value 3600
Set parameter LogFile to value "RCPSP_1329.log"
Set parameter Threads to value 32
Academic license - for non-commercial use only - expires 2024-10-30
Using license file /home/jrivera6/gurobi-licenses/v1003/compute-0-34/gurobi.lic

Gurobi Optimizer version 10.0.3 build v10.0.3rc0 (linux64)
Copyright (c) 2023, Gurobi Optimization, LLC

Read MPS format model from file RCPSP_1329.mps
Reading time = 0.06 seconds
RCPSP_1329: 42975 rows, 17020 columns, 142890 nonzeros

CPU model: Intel(R) Xeon(R) Gold 6130 CPU @ 2.10GHz, instruction set [SSE2|AVX|AVX2|AVX512]
Thread count: 32 physical cores, 32 logical processors, using up to 32 threads

Optimize a model with 42975 rows, 17020 columns and 142890 nonzeros
Model fingerprint: 0x9475d2aa
Variable types: 92 continuous, 16928 integer (16928 binary)
Coefficient statistics:
  Matrix range     [1e+00, 5e+02]
  Objective range  [1e+00, 1e+00]
  Bounds range     [1e+00, 1e+00]
  RHS range        [1e+00, 5e+02]
Presolve removed 10245 rows and 2582 columns (presolve time = 5s) ...
Presolve removed 10245 rows and 2582 columns (presolve time = 10s) ...
Presolve removed 15689 rows and 4660 columns
Presolve time: 10.34s
Presolved: 27286 rows, 12360 columns, 93379 nonzeros
Variable types: 91 continuous, 12269 integer (12269 binary)

Root simplex log...

Iteration    Objective       Primal Inf.    Dual Inf.      Time
       0    9.3000000e+01   9.301575e+04   0.000000e+00     11s
    3885    9.3000000e+01   0.000000e+00   0.000000e+00     11s

Root relaxation: objective 9.300000e+01, 3885 iterations, 0.20 seconds (0.05 work units)

    Nodes    |    Current Node    |     Objective Bounds      |     Work
 Expl Unexpl |  Obj  Depth IntInf | Incumbent    BestBd   Gap | It/Node Time

     0     0   93.00000    0  237          -   93.00000      -     -   13s
     0     0   93.00000    0  241          -   93.00000      -     -   13s
     0     0   94.55556    0  892          -   94.55556      -     -   38s
     0     0   94.55556    0  856          -   94.55556      -     -   41s
     0     0   94.55556    0  741          -   94.55556      -     -   41s
     0     0   94.55556    0  787          -   94.55556      -     -   42s
     0     0   94.55556    0  200          -   94.55556      -     -   86s
     0     0   95.07021    0  752          -   95.07021      -     -   99s
     0     0   95.07021    0  738          -   95.07021      -     -  100s
     0     0   95.11251    0  786          -   95.11251      -     -  102s
     0     0   95.11251    0  788          -   95.11251      -     -  102s
     0     0   95.11251    0  644          -   95.11251      -     -  104s
     0     0   95.11251    0  642          -   95.11251      -     -  104s
     0     0   98.75101    0  841          -   98.75101      -     -  119s
     0     0   98.75101    0  794          -   98.75101      -     -  121s
     0     0   98.75101    0  765          -   98.75101      -     -  121s
     0     0   98.75101    0  741          -   98.75101      -     -  122s
     0     0  100.00000    0  840          -  100.00000      -     -  139s
     0     0  100.00000    0  793          -  100.00000      -     -  139s
     0     0  100.00125    0 1060          -  100.00125      -     -  145s
     0     0  100.00125    0  973          -  100.00125      -     -  145s
     0     0  100.00125    0  964          -  100.00125      -     -  146s
     0     0  100.00164    0  934          -  100.00164      -     -  147s
     0     0  100.00164    0  921          -  100.00164      -     -  147s
     0     0  100.02717    0 1000          -  100.02717      -     -  151s
     0     0  100.02717    0  916          -  100.02717      -     -  152s
     0     0  100.02717    0  907          -  100.02717      -     -  152s
     0     0  100.02717    0 1003          -  100.02717      -     -  153s
     0     0  100.02717    0  955          -  100.02717      -     -  153s
     0     0  100.14499    0  958          -  100.14499      -     -  157s
     0     0  100.14499    0  877          -  100.14499      -     -  158s
     0     0  100.14499    0  845          -  100.14499      -     -  159s
     0     0  100.14499    0  843          -  100.14499      -     -  159s
     0     0  100.14499    0  798          -  100.14499      -     -  159s
     0     0  100.14499    0  853          -  100.14499      -     -  160s
     0     0  100.14499    0  839          -  100.14499      -     -  160s
     0     0  100.15343    0  851          -  100.15343      -     -  166s
     0     0  100.15343    0  745          -  100.15343      -     -  167s
     0     0  100.15343    0  666          -  100.15343      -     -  167s
     0     0  100.15343    0  731          -  100.15343      -     -  169s
     0     0  100.22557    0  726          -  100.22557      -     -  171s
     0     0  100.22557    0  713          -  100.22557      -     -  171s
     0     0  100.22557    0  808          -  100.22557      -     -  174s
     0     0  100.22557    0  827          -  100.22557      -     -  175s
     0     0  100.22557    0  764          -  100.22557      -     -  176s
     0     0  100.22557    0  762          -  100.22557      -     -  176s
     0     0  100.22557    0  858          -  100.22557      -     -  186s
     0     0  100.22557    0  759          -  100.22557      -     -  187s
     0     0  100.22557    0  834          -  100.22557      -     -  188s
     0     0  100.22557    0  828          -  100.22557      -     -  189s
     0     0  100.22557    0  826          -  100.22557      -     -  189s
     0     0  100.22557    0  828          -  100.22557      -     -  194s
     0     0  100.22557    0  820          -  100.22557      -     -  194s
     0     0  100.22557    0  413          -  100.22557      -     -  208s
     0     0  100.22557    0  413          -  100.22557      -     -  208s
     0     0  100.22557    0  411          -  100.22557      -     -  208s
     0     0  100.22557    0  638          -  100.22557      -     -  209s
     0     0  100.22557    0  636          -  100.22557      -     -  209s
     0     0  100.22557    0  333          -  100.22557      -     -  220s
     0     0  100.22557    0  462          -  100.22557      -     -  222s
     0     0  100.22557    0  446          -  100.22557      -     -  223s
     0     0  100.22557    0  257          -  100.22557      -     -  235s
     0     0  100.22557    0  228          -  100.22557      -     -  235s
     0     0  100.22557    0  502          -  100.22557      -     -  237s
     0     0  100.22557    0  501          -  100.22557      -     -  237s
     0     0  100.23209    0  425          -  100.23209      -     -  255s
     0     0  100.23209    0  607          -  100.23209      -     -  261s
     0     0  100.23209    0  730          -  100.23209      -     -  265s
     0     0  100.23209    0  685          -  100.23209      -     -  266s
     0     0  100.23209    0  740          -  100.23209      -     -  266s
     0     0  100.23209    0  738          -  100.23209      -     -  267s
H    0     0                     450.0000000  100.23209  77.7%     -  273s
     0     0  100.23209    0  216  450.00000  100.23209  77.7%     -  276s
H    0     0                     447.0000000  100.23209  77.6%     -  292s
     0     2  100.23209    0  187  447.00000  100.23209  77.6%     -  308s
     1     4  101.00647    1  411  447.00000  100.58666  77.5%  2865  333s
     3     8  102.07538    2  764  447.00000  102.00000  77.2%  1521  340s
     7    16  102.38954    3  730  447.00000  102.00000  77.2%  1108  533s
    15    28  104.09836    4  613  447.00000  102.00000  77.2%   934  550s
H   31    49                     431.0000000  102.00000  76.3%   837 1015s
H   32    49                     400.0000000  102.00000  74.5%   838 1015s
H   36    49                     337.0000000  102.00000  69.7%   836 1016s
H   37    49                     321.0000000  102.00000  68.2%   824 1016s
H   44    49                     248.0000000  102.66667  58.6%   782 1016s
    59    78  107.00000    6  651  248.00000  102.66667  58.6%   750 1229s
H   91   109                     214.0000000  103.00000  51.9%   709 1506s
H   92   109                     205.0000000  103.00000  49.8%   707 1506s
H  121   109                     204.0000000  103.00000  49.5%   644 1506s
   123   134  107.00000    8  614  204.00000  103.00000  49.5%   637 1511s
   155   164  107.00000    9  553  204.00000  103.00000  49.5%   557 1515s
   187   220  107.00000   10  511  204.00000  103.00000  49.5%   483 1522s
   250   271  107.00000   12  513  204.00000  103.00000  49.5%   384 1528s
   312   320  107.00000   14  503  204.00000  103.00000  49.5%   322 1533s
   373   394  107.00000   16  500  204.00000  103.00000  49.5%   281 1539s
   458   471  107.00000   19  483  204.00000  103.00000  49.5%   240 1543s
   541   548  107.00000   21  455  204.00000  103.00000  49.5%   211 1547s
   625   641  107.00000   23  535  204.00000  103.00000  49.5%   195 1554s
   732   745  107.00000   25  508  204.00000  103.00000  49.5%   173 1562s
   841   856  107.00000   29  492  204.00000  103.00000  49.5%   161 1566s
   964   941  107.00000   31  471  204.00000  103.00000  49.5%   146 1574s
  1071  1035  108.36364   33  397  204.00000  103.00000  49.5%   138 1581s
  1170  1066 infeasible   34       204.00000  103.00000  49.5%   135 1595s
H 1171  1066                     198.0000000  103.00000  48.0%   135 1595s
H 1173  1066                     196.0000000  103.00000  47.4%   135 1597s
H 1177  1066                     194.0000000  103.00000  46.9%   134 1597s
H 1192  1066                     193.0000000  103.00000  46.6%   133 1597s
  1203  1211  108.61538   35  389  193.00000  103.00000  46.6%   133 1601s
  1365  1378  116.00000   37  548  193.00000  103.00000  46.6%   122 1608s
  1551  1515  117.00000   41  524  193.00000  103.00000  46.6%   113 1615s
  1727  1684  117.00000   48  465  193.00000  103.00000  46.6%   107 1626s
  1929  1907  117.00000   49  523  193.00000  103.00000  46.6%  99.3 1634s
  2189  2109  117.00000   59  499  193.00000  103.00000  46.6%  91.4 1641s
H 2421  2139                     186.0000000  103.00000  44.6%  86.0 1653s
H 2422  2139                     185.0000000  103.00000  44.3%  86.0 1653s
H 2432  2139                     184.0000000  103.00000  44.0%  86.3 1654s
H 2438  2139                     181.0000000  103.00000  43.1%  86.1 1654s
  2454  2389  117.00000   71  494  181.00000  103.00000  43.1%  85.8 1672s
  2768  2584  117.00000   84  477  181.00000  103.00000  43.1%  78.8 1682s
  3019  2881  117.00000   90  466  181.00000  103.00000  43.1%  76.1 1790s
  3364  3246  117.00000  104  458  181.00000  103.00000  43.1%  70.7 1795s
  3786  3271  117.00000  121  427  181.00000  103.00000  43.1%  64.9 1813s
H 3787  3271                     180.0000000  103.00000  42.8%  64.8 1813s
H 3798  3271                     179.0000000  103.00000  42.5%  65.0 1813s
  3825  3645  117.00000  121  567  179.00000  103.00000  42.5%  65.0 1819s
  4241  4009  117.00000  134  419  179.00000  103.00000  42.5%  60.8 1832s
  4688  4327 infeasible  146       179.00000  103.00000  42.5%  57.5 1843s
  5078  4355  103.16589   10  786  179.00000  103.00000  42.5%  55.6 1854s
H 5083  4355                     178.0000000  103.00000  42.1%  55.6 1855s
H 5100  4355                     172.0000000  103.00000  40.1%  55.6 1856s
  5112  4812  103.16589   11  786  172.00000  103.00000  40.1%  55.6 1867s
  5639  5406  110.75000   17  568  172.00000  103.00000  40.1%  52.9 1881s
H 6277  5438                     170.0000000  103.00000  39.4%  49.5 1893s
H 6284  5438                     169.0000000  103.00000  39.1%  49.6 1893s
H 6286  5426                     168.0000000  103.00000  38.7%  49.5 1893s
H 6293  5426                     166.0000000  103.00000  38.0%  49.6 1894s
  6316  6002  117.00000   26  519  166.00000  103.00000  38.0%  49.9 1905s
  6977  6666  120.00000   49  558  166.00000  103.00000  38.0%  47.3 1983s
H 7720  6666                     165.0000000  103.00000  37.6%  44.9 2035s
  7721  6667  119.00000  105  787  165.00000  103.00000  37.6%  44.9 2065s
  7723  6668  122.00000   79  168  165.00000  103.00000  37.6%  44.9 2169s
  7724  6669  108.00000   45  553  165.00000  103.00000  37.6%  44.9 2173s
  7726  6670  132.00000  161  443  165.00000  103.00000  37.6%  44.9 2177s
H 7727  6337                     164.0000000  103.00000  37.2%  44.9 2180s
H 7730  6022                     163.0000000  103.00000  36.8%  44.9 2184s
  7731  6023  132.00000  121  705  163.00000  103.00000  36.8%  44.9 2186s
  7734  6025  143.00000  116  685  163.00000  103.00000  36.8%  44.9 2190s
  7737  6027  128.00000  141  864  163.00000  103.00000  36.8%  44.8 2197s
  7739  6028  139.00000  235  745  163.00000  103.00000  36.8%  44.8 2200s
  7742  6030  116.00000   58  705  163.00000  103.00000  36.8%  44.8 2205s
  7743  6031  127.00000   70  116  163.00000  103.00000  36.8%  44.8 2214s
  7744  6031  124.00000   28  261  163.00000  103.00000  36.8%  44.8 2216s
  7745  6032  112.00000   68  134  163.00000  103.00000  36.8%  44.8 2222s
  7747  6033  115.00000  108  133  163.00000  103.00000  36.8%  44.8 2231s
  7748  6037  103.00000   11  133  163.00000  103.00000  36.8%  51.3 2262s
  7750  6040  103.00000   12  149  163.00000  103.00000  36.8%  51.3 2278s
  7754  6047  103.00000   13  144  163.00000  103.00000  36.8%  51.4 2317s
  7762  6060  103.00000   14  160  163.00000  103.00000  36.8%  51.7 2338s
  7778  6087  103.00000   15  164  163.00000  103.00000  36.8%  52.4 2362s
H 7781  5784                     163.0000000  103.00000  36.8%  52.4 2362s
H 7782  5497                     162.0000000  103.00000  36.4%  52.4 2362s
H 7794  5220                     161.0000000  103.00000  36.0%  52.6 2362s
H 7810  4987                     160.0000000  103.00000  35.6%  53.1 2747s
H 7815  4740                     160.0000000  103.00000  35.6%  53.1 2747s
  7842  4763  103.00000   16  191  160.00000  103.00000  35.6%  53.2 3083s
H 7844  4528                     154.0000000  103.00000  33.1%  53.3 3083s
H 7853  4303                     149.0000000  103.00000  30.9%  53.4 3083s
H 7860  4090                     148.0000000  103.00000  30.4%  53.4 3083s
  7874  4117  103.00000   17  208  148.00000  103.00000  30.4%  53.6 3095s
  7906  4138  103.00000   17  164  148.00000  103.00000  30.4%  53.8 3138s
  7938  4172  103.00000   18  183  148.00000  103.00000  30.4%  54.3 3154s
  7982  4189  103.00000   18  265  148.00000  103.00000  30.4%  54.8 3329s
  8014  4226  103.00049   19  298  148.00000  103.00000  30.4%  55.2 3350s
  8062  4259  103.00000   19  169  148.00000  103.00000  30.4%  55.5 3360s
  8111  4292  103.00000   20  293  148.00000  103.00000  30.4%  55.8 3379s
  8160  4323  103.00000   21  210  148.00000  103.00000  30.4%  56.0 3396s
  8207  4357  103.00000   22  244  148.00000  103.00000  30.4%  56.3 3411s
  8257  4395  103.00000   23  236  148.00000  103.00000  30.4%  56.5 3431s
  8312  4432  103.00000   24  562  148.00000  103.00000  30.4%  56.7 3442s
  8367  4476  104.00000   24  232  148.00000  103.00000  30.4%  56.6 3465s
  8429  4582  113.00000   25  323  148.00000  103.00000  30.4%  56.5 3477s
  8562  4780  104.00000   28  227  148.00000  103.00000  30.4%  56.3 3493s
  8841  4900  104.00000   32  236  148.00000  103.00000  30.4%  55.6 3502s
H 9119  4615                     146.0000000  103.00000  29.5%  54.7 3555s
  9171  4632  105.00000   35  218  146.00000  103.00000  29.5%  55.1 3586s
  9226  4795  105.00000   36  217  146.00000  103.00000  29.5%  55.3 3600s

Cutting planes:
  Learned: 1
  Gomory: 21
  Cover: 69
  Implied bound: 37
  Projected implied bound: 3
  Clique: 12
  MIR: 80
  StrongCG: 16
  Flow cover: 214
  Inf proof: 1
  RLT: 36
  Relax-and-lift: 116

Explored 9425 nodes (626177 simplex iterations) in 3644.90 seconds (131.62 work units)
Thread count was 32 (of 32 available processors)

Solution count 10: 146 148 149 ... 163

Time limit reached
Best objective 1.460000000000e+02, best bound 1.030000000000e+02, gap 29.4521%

Wrote result file 'RCPSP_1329.sol'

